p cnf 15 33
15 -14 6 0
-15 -13 2 0
15 13 1 0
15 -12 -1 0
15 11 -7 0
-15 -11 -1 0
-15 -10 2 0
15 10 2 0
-15 7 -2 0
-15 3 -1 0
14 11 10 0
-14 -4 -2 0
13 10 1 0
-13 7 -1 0
-13 -5 -4 0
-12 10 3 0
12 -9 -8 0
-12 9 -7 0
11 -10 4 0
-10 8 -2 0
-10 -7 -5 0
-10 -7 -4 0
-9 8 3 0
-9 -6 -5 0
9 5 -2 0
-8 -6 -4 0
-8 -3 2 0
7 -6 5 0
-7 -6 -1 0
-7 5 4 0
7 3 -2 0
6 4 3 0
-5 -4 3 0
